% n100w120.003    19.43 967
numLocations = 101;
duration = duration = duration = duration = [|0, 7, 37, 23, 38, 19, 24, 7, 14, 27, 32, 21, 40, 37, 34, 21, 10, 20, 39, 18, 13... ]; // array too long to display, dimensions: (30)
 // array too long to display, dimensions: (10101)

early = early = [0, 379, 273, 139, 226, 108, 500, 0, 324, 45, 252, 24, 599, 531, 252, 328, 675, 1... ]; // array too long to display, dimensions: (101)

late = late = [1033, 492, 383, 244, 335, 239, 614, 87, 455, 160, 378, 144, 719, 650, 376, 450, ... ]; // array too long to display, dimensions: (101)
